p cnf 46 697
-27 -28 0
-11 -12 -27 0
-11 -12 -40 0
-11 -26 0
-19 -28 0
-11 -23 0
-11 -24 0
-11 -36 0
-3 -11 -19 0
-5 -11 0
-3 -11 -12 -28 0
-1 -11 -12 0
-3 -4 -11 0
-6 -11 -12 0
-8 -11 0
-10 -11 0
-11 -13 0
-11 -14 0
-11 -15 0
-11 -12 -17 0
-7 -11 -18 0
-11 -20 0
-11 -21 0
-7 -11 -29 0
-7 -11 -31 0
-7 -11 -32 0
-7 -11 -33 0
-11 -34 0
-11 -22 0
-7 -11 -30 0
-11 -12 -35 0
-11 -37 0
-11 -38 0
-11 -12 -41 0
-7 -11 -42 0
-7 -11 -43 0
-7 -11 -44 0
-11 -45 0
-11 -12 -46 0
-11 -39 0
-3 -11 -32 0
-11 -18 -29 0
-4 -11 -12 0
-4 -11 -28 0
-4 -11 -18 0
-7 -22 -40 0
-17 -40 0
-12 -22 -27 0
-22 -27 -40 0
-10 -22 0
-5 -22 0
-20 -22 0
-21 -22 0
-4 -22 -40 0
-22 -23 0
-28 -40 0
-5 -12 -28 0
-23 -28 0
-28 -36 0
-24 -28 0
-12 -17 -41 0
-10 -17 -27 0
-15 -17 -41 0
-15 -17 -46 0
-17 -24 0
-17 -32 0
-7 -26 -28 0
-7 -21 -28 0
-4 -10 -28 0
-7 -10 -28 0
-17 -37 0
-14 -28 0
-7 -8 -28 0
-6 -8 -28 0
-5 -21 -28 0
-20 -28 0
-3 -26 -28 0
-8 -26 -28 0
-28 -34 0
-28 -35 0
-28 -37 0
-28 -38 0
-28 -41 0
-28 -44 0
-28 -45 0
-28 -46 0
-18 -28 0
-28 -31 0
-28 -32 0
-28 -33 0
-17 -28 0
-28 -43 0
-15 -28 0
-28 -29 0
-2 -8 -28 0
-28 -39 0
-8 -16 -28 0
-28 -30 0
-4 -8 -28 0
-6 -7 -28 0
-6 -16 -28 0
-3 -6 -28 0
-28 -42 0
-5 -26 -28 0
-6 -9 -28 0
-5 -6 -28 0
-4 -7 -28 0
-5 -7 -28 0
-5 -16 -28 0
-5 -25 -28 0
-3 -4 -28 0
-4 -5 -28 0
-4 -12 -28 0
-4 -26 -28 0
-16 -26 -28 0
-9 -26 -28 0
-2 -26 -28 0
-1 -12 -28 0
-6 -26 -28 0
-1 -26 -28 0
-13 -28 0
-6 -21 -28 0
-2 -10 -28 0
-1 -10 -28 0
-10 -25 -28 0
-6 -12 -28 0
-6 -10 -28 0
-4 -22 -28 0
-6 -22 -28 0
-3 -4 -22 0
-19 -22 0
-22 -34 0
-8 -17 -27 0
-17 -36 0
-17 -23 0
-17 -38 0
-17 -45 0
-4 -12 -22 0
-18 -22 0
-8 -22 0
-22 -24 0
-22 -36 0
-4 -11 -27 0
-4 -11 -19 0
-4 -11 -17 0
-6 -7 -11 0
-1 -3 -11 0
-7 -11 -27 0
-1 -7 -11 0
-2 -11 -19 0
-6 -11 -19 0
-6 -11 -27 0
-1 -11 -17 0
-6 -11 -17 0
-3 -11 -17 0
-2 -11 -27 0
-11 -17 -29 0
-17 -27 -30 0
-11 -19 -35 0
-11 -27 -35 0
-11 -17 -42 0
-17 -19 0
-17 -18 0
-11 -27 -44 0
-11 -17 -44 0
-11 -17 -30 0
-11 -16 -17 0
-9 -11 -17 0
-17 -33 0
-11 -17 -43 0
-2 -11 -35 0
-11 -17 -25 0
-11 -17 -35 0
-2 -11 -17 0
-17 -27 -41 0
-11 -27 -46 0
-17 -41 -46 0
-17 -31 0
-7 -11 -17 0
-6 -17 -27 0
-17 -26 -27 0
-22 -26 0
-15 -22 0
-14 -22 0
-17 -22 0
-4 -17 -41 0
-5 -17 -35 0
-8 -17 -35 0
-6 -7 -17 -35 0
-17 -26 -41 0
-13 -17 -35 0
-7 -10 -17 -35 0
-17 -29 -41 0
-4 -7 -17 -35 0
-12 -17 -35 0
-17 -26 -35 0
-17 -39 -46 0
-14 -17 -35 0
-17 -20 -35 0
-15 -17 -35 0
-17 -29 -35 0
-17 -21 -30 0
-17 -30 -34 0
-1 -3 -17 -30 0
-17 -35 -41 0
-17 -35 -39 0
-1 -7 -17 -30 0
-17 -30 -46 0
-16 -17 -30 0
-17 -25 -30 0
-17 -43 -44 0
-17 -30 -43 0
-3 -10 -17 -30 0
-4 -10 -17 -30 0
-4 -10 -17 -35 0
-3 -10 -17 -35 0
-6 -10 -17 -35 0
-17 -21 -35 0
-17 -34 -35 0
-1 -10 -17 -35 0
-17 -44 -46 0
-7 -17 -27 0
-1 -7 -17 -35 0
-17 -35 -46 0
-17 -25 -35 0
-3 -4 -17 -35 0
-4 -9 -17 -42 0
-17 -42 -43 0
-17 -35 -43 0
-4 -9 -17 -35 0
-16 -17 -35 0
-3 -6 -17 -35 0
-6 -9 -17 -35 0
-1 -9 -17 -35 0
-1 -3 -17 -35 0
-3 -17 -27 0
-17 -27 -35 0
-2 -10 -17 -42 0
-9 -10 -17 -30 0
-9 -10 -17 -42 0
-9 -10 -17 -35 0
-2 -10 -17 -44 0
-2 -10 -17 -30 0
-2 -10 -17 -35 0
-10 -17 -43 0
-17 -26 -43 0
-17 -21 -43 0
-12 -17 -46 0
-6 -17 -46 0
-10 -17 -46 0
-17 -26 -46 0
-13 -17 -46 0
-14 -17 -46 0
-7 -8 -17 -46 0
-4 -17 -46 0
-5 -7 -17 -46 0
-17 -20 -46 0
-17 -42 -46 0
-17 -21 -46 0
-17 -34 -46 0
-17 -29 -46 0
-1 -7 -17 -46 0
-16 -17 -43 0
-17 -43 -46 0
-17 -25 -46 0
-16 -17 -46 0
-1 -2 -17 -46 0
-8 -9 -17 -46 0
-2 -8 -17 -46 0
-2 -5 -17 -46 0
-5 -9 -17 -46 0
-1 -9 -17 -46 0
-17 -27 -46 0
-2 -17 -27 0
-4 -17 -27 0
-12 -17 -27 0
-5 -17 -27 0
-13 -17 -27 0
-15 -17 -27 0
-1 -17 -27 0
-14 -17 -27 0
-17 -27 -29 0
-17 -20 -27 0
-17 -27 -42 0
-17 -39 -44 0
-17 -27 -39 0
-17 -21 -27 0
-16 -17 -44 0
-16 -17 -27 0
-9 -17 -27 0
-17 -27 -43 0
-17 -27 -34 0
-17 -27 -44 0
-17 -25 -27 0
-5 -17 -42 0
-3 -4 -17 -42 0
-8 -17 -42 0
-4 -10 -17 -42 0
-10 -12 -17 -42 0
-3 -10 -17 -42 0
-17 -26 -42 0
-14 -17 -42 0
-13 -17 -42 0
-6 -17 -41 0
-17 -21 -41 0
-17 -21 -42 0
-15 -17 -44 0
-8 -17 -44 0
-5 -17 -44 0
-3 -4 -17 -44 0
-4 -10 -17 -44 0
-17 -26 -44 0
-3 -6 -17 -44 0
-12 -17 -44 0
-14 -17 -44 0
-13 -17 -44 0
-6 -10 -17 -44 0
-17 -29 -44 0
-3 -10 -17 -44 0
-1 -10 -17 -44 0
-7 -10 -17 -44 0
-17 -25 -44 0
-17 -20 -44 0
-17 -21 -44 0
-17 -34 -44 0
-4 -7 -17 -42 0
-15 -17 -42 0
-17 -20 -42 0
-3 -12 -17 -42 0
-17 -34 -42 0
-17 -29 -42 0
-6 -12 -17 -42 0
-7 -12 -17 -42 0
-1 -7 -17 -42 0
-17 -41 -42 0
-16 -17 -41 0
-17 -34 -41 0
-10 -17 -41 0
-17 -20 -41 0
-14 -17 -41 0
-5 -7 -17 -41 0
-13 -17 -41 0
-7 -8 -17 -41 0
-1 -7 -17 -41 0
-17 -25 -41 0
-17 -39 -43 0
-17 -41 -43 0
-17 -20 -43 0
-17 -34 -43 0
-12 -17 -43 0
-17 -29 -43 0
-17 -25 -43 0
-4 -7 -17 -44 0
-6 -7 -17 -44 0
-1 -7 -17 -44 0
-3 -4 -17 -30 0
-8 -17 -30 0
-14 -17 -30 0
-17 -26 -30 0
-12 -17 -30 0
-15 -17 -30 0
-6 -7 -17 -30 0
-4 -7 -17 -30 0
-5 -17 -30 0
-17 -20 -30 0
-17 -29 -30 0
-17 -39 -42 0
-6 -7 -17 -42 0
-16 -17 -42 0
-17 -25 -42 0
-7 -10 -17 -42 0
-13 -17 -30 0
-17 -30 -39 0
-17 -39 -41 0
-17 -41 -44 0
-17 -30 -41 0
-2 -8 -17 -41 0
-5 -9 -17 -41 0
-2 -5 -17 -41 0
-1 -2 -17 -41 0
-1 -9 -17 -41 0
-8 -9 -17 -41 0
-6 -9 -17 -30 0
-1 -9 -17 -44 0
-4 -9 -17 -30 0
-4 -9 -17 -44 0
-6 -9 -17 -44 0
-1 -3 -17 -42 0
-1 -3 -17 -44 0
-9 -10 -17 -44 0
-1 -9 -17 -42 0
-2 -12 -17 -42 0
-9 -12 -17 -42 0
-1 -12 -17 -42 0
-4 -12 -17 -42 0
-1 -9 -17 -30 0
-3 -6 -17 -42 0
-6 -9 -17 -42 0
-3 -6 -17 -30 0
-7 -10 -17 -30 0
-6 -10 -17 -30 0
-1 -10 -17 -30 0
-6 -10 -17 -42 0
-1 -10 -17 -42 0
-22 -30 0
-22 -31 0
-22 -32 0
-6 -12 -22 0
-12 -22 -40 0
-1 -3 -22 0
-22 -29 0
-6 -22 -40 0
-22 -33 0
-22 -37 0
-22 -38 0
-22 -42 0
-22 -43 0
-22 -45 0
-22 -39 0
-13 -22 0
-22 -35 0
-22 -40 -44 0
-2 -22 -40 0
-16 -22 -40 0
-9 -22 -40 0
-22 -25 -40 0
-22 -40 -46 0
-22 -41 0
-4 -11 -41 0
-6 -11 -40 0
-2 -11 -29 0
-11 -19 -42 0
-11 -29 -40 0
-1 -11 -19 0
-11 -25 -31 0
-11 -16 -31 0
-11 -30 -41 0
-11 -32 -44 0
-11 -19 -32 0
-1 -11 -31 0
-6 -11 -29 0
-11 -32 -35 0
-11 -32 -33 0
-9 -11 -32 0
-1 -11 -29 0
-11 -16 -32 0
-11 -16 -43 0
-3 -11 -29 0
-11 -35 -41 0
-11 -41 -44 0
-11 -25 -43 0
-9 -11 -43 0
-11 -31 -33 0
-11 -33 -43 0
-11 -25 -29 0
-11 -16 -29 0
-9 -11 -29 0
-11 -29 -33 0
-1 -11 -42 0
-11 -18 -40 -42 0
-3 -11 -18 0
-11 -18 -41 0
-1 -11 -33 0
-11 -16 -41 0
-3 -11 -33 0
-2 -11 -42 0
-11 -25 -42 0
-9 -11 -40 0
-2 -11 -41 0
-11 -19 -25 0
-11 -40 -46 0
-11 -40 -41 0
-9 -11 -27 0
-11 -27 -41 0
-9 -11 -19 0
-11 -19 -41 -46 0
-11 -33 -41 0
-7 -11 -19 0
-11 -19 -29 0
-11 -19 -31 0
-6 -11 -31 0
-3 -11 -31 0
-9 -11 -42 0
-9 -11 -31 0
-6 -11 -41 0
-1 -11 -32 0
-11 -25 -32 0
-1 -11 -25 0
-9 -11 -41 0
-7 -11 -41 0
-11 -25 -41 0
-11 -25 -46 0
-3 -6 -11 0
-3 -11 -30 0
-11 -12 -44 0
-2 -11 -18 0
-6 -11 -18 0
-11 -25 -35 0
-9 -11 -44 0
-11 -25 -30 -40 0
-11 -18 -40 -44 0
-11 -16 -25 -40 0
-11 -25 -27 0
-11 -12 -19 0
-11 -18 -25 -40 0
-2 -11 -33 0
-4 -11 -40 0
-11 -33 -40 -44 0
-2 -11 -44 0
-3 -11 -44 0
-6 -11 -44 0
-4 -11 -33 0
-11 -16 -25 -44 0
-11 -25 -30 -44 0
-11 -18 -25 -33 -44 0
-4 -11 -25 0
-11 -19 -44 0
-11 -16 -46 0
-11 -18 -46 0
-11 -33 -46 0
-4 -11 -46 0
-11 -29 -44 -46 0
-11 -31 -44 -46 0
-4 -11 -31 0
-11 -18 -31 0
-11 -31 -40 0
-2 -11 -31 0
-11 -12 -32 0
-11 -30 -32 0
-11 -27 -31 -32 0
-11 -27 -29 -32 0
-11 -27 -32 -42 0
-11 -18 -32 0
-11 -27 -32 -43 0
-11 -32 -40 0
-2 -11 -32 0
-4 -11 -32 0
-6 -11 -32 0
-6 -11 -43 0
-11 -29 -30 -46 0
-11 -29 -35 -46 0
-11 -30 -31 -46 0
-11 -35 -43 -46 0
-11 -31 -35 -46 0
-3 -11 -42 0
-7 -11 -46 0
-7 -11 -35 0
-4 -7 -11 0
-7 -11 -40 0
-4 -11 -16 0
-4 -11 -29 0
-4 -11 -43 0
-4 -11 -44 0
-11 -18 -43 0
-1 -11 -18 0
-1 -11 -30 0
-1 -11 -44 0
-1 -11 -16 0
-11 -40 -43 0
-1 -11 -35 -40 0
-2 -11 -40 0
-1 -11 -27 -40 0
-11 -16 -27 -42 0
-11 -27 -40 -42 0
-3 -11 -27 -40 0
-11 -18 -27 -42 0
-11 -27 -30 -42 0
-11 -27 -33 -42 0
-11 -27 -30 -31 0
-11 -27 -29 -30 0
-11 -27 -30 -43 0
-11 -19 -43 0
-1 -11 -43 0
-3 -11 -16 -27 0
-3 -11 -43 0
-9 -11 -35 0
-9 -11 -46 0
-2 -11 -46 0
-3 -11 -35 -46 0
-3 -11 -41 -46 0
-1 -11 -41 -46 0
-6 -11 -46 0
-11 -30 -43 -46 0
-11 -43 -44 -46 0
-1 -11 -35 -46 0
-11 -19 -30 -46 0
-4 -11 -35 0
-1 -9 -11 0
-4 -11 -30 0
-4 -9 -11 0
-4 -11 -42 0
-6 -11 -42 0
-6 -11 -33 0
-2 -11 -30 0
-6 -11 -16 0
-6 -9 -11 0
-6 -11 -25 0
-2 -11 -28 0
-7 -11 -28 0
-11 -16 -28 0
-9 -11 -28 0
-11 -25 -28 0
-6 -11 -28 0
-16 -22 -28 0
-7 -22 -28 0
-1 -7 -28 0
-4 -25 -28 0
-16 -21 -28 0
-9 -21 -28 0
-4 -21 -28 0
-1 -21 -28 0
-3 -21 -28 0
-21 -25 -28 0
-2 -21 -28 0
-8 -12 -28 0
-8 -10 -28 0
-10 -16 -28 0
-3 -10 -28 0
-2 -5 -28 0
-8 -9 -28 0
-5 -9 -28 0
-5 -10 -28 0
-1 -16 -28 0
-4 -16 -28 0
-4 -9 -28 0
-1 -2 -3 -28 0
-1 -25 -28 0
-6 -25 -28 0
-1 -9 -28 0
-9 -10 -28 0
-8 -21 -28 0
-8 -25 -28 0
-25 -26 -28 0
-3 -12 -22 -28 0
-2 -22 -28 0
-9 -22 -28 0
-22 -25 -28 0
-1 -12 -22 0
-16 -22 -46 0
-4 -22 -27 0
-4 -7 -22 0
-4 -22 -44 0
-4 -22 -46 0
-6 -9 -22 0
-6 -16 -22 0
-4 -22 -25 0
-6 -22 -25 0
-6 -7 -22 0
-1 -22 -27 0
-3 -6 -22 0
-22 -27 -44 0
-2 -22 -27 0
-6 -22 -27 0
-2 -22 -46 0
-6 -22 -44 0
-6 -22 -46 0
-4 -16 -22 0
-4 -9 -22 0
-12 -22 -44 0
-7 -22 -44 0
-2 -22 -44 0
-22 -25 -44 0
-1 -7 -22 0
-1 -16 -22 0
-1 -9 -22 0
-1 -22 -25 0
-22 -25 -27 0
-7 -22 -46 0
-12 -22 -46 0
-9 -22 -46 0
-22 -25 -46 0
-22 -44 -46 0
-22 -27 -46 0
-9 -22 -44 0
-7 -22 -27 0
-9 -22 -27 0
-16 -22 -27 0
-11 -12 -16 -42 0
-11 -12 -18 -42 0
-11 -16 -35 -40 0
-3 -11 -35 -40 0
-11 -18 -35 -40 0
-11 -33 -35 -40 0
-11 -16 -30 -40 -44 0
-11 -16 -40 -42 0
-11 -33 -40 -42 0
-3 -11 -16 -40 0
-3 -11 -25 -40 0
-11 -25 -33 -40 0
-11 -12 -29 -30 0
-11 -12 -30 -31 0
-11 -12 -30 -42 0
-11 -12 -30 -43 0
-2 -11 -43 0
-11 -12 -33 -42 0
-6 -11 -35 0
-6 -11 -30 0
